Version identifier: 12.10.0.0 | 2019-11-26 | 843d4de
CPXPARAM_WorkMem                                 28672
Tried aggregator 2 times.
MIP Presolve modified 40 coefficients.
Aggregator did 75 substitutions.
Reduced MIP has 395 rows, 450 columns, and 1910 nonzeros.
Reduced MIP has 450 binaries, 0 generals, 0 SOSs, and 0 indicators.
Presolve time = 0,00 sec. (2,10 ticks)
Found incumbent of value 2140,000000 after 0,01 sec. (3,41 ticks)
Probing time = 0,00 sec. (0,98 ticks)
Tried aggregator 1 time.
Detecting symmetries...
MIP Presolve eliminated 65 rows and 0 columns.
MIP Presolve added 130 rows and 0 columns.
Reduced MIP has 460 rows, 450 columns, and 1975 nonzeros.
Reduced MIP has 450 binaries, 0 generals, 0 SOSs, and 0 indicators.
Presolve time = 0,00 sec. (2,50 ticks)
Probing time = 0,00 sec. (0,97 ticks)
Clique table members: 1405.
MIP emphasis: balance optimality and feasibility.
MIP search method: dynamic search.
Parallel mode: deterministic, using up to 16 threads.
Root relaxation solution time = 0,00 sec. (2,14 ticks)

        Nodes                                         Cuts/
   Node  Left     Objective  IInf  Best Integer    Best Bound    ItCnt     Gap

*     0+    0                         2140,0000        0,0000           100,00%
*     0+    0                         1112,0000        0,0000           100,00%
*     0+    0                         1052,0000        0,0000           100,00%
      0     0      436,9000   372     1052,0000      436,9000      159   58,47%
      0     0      444,4579   372     1052,0000     Cuts: 135      340   57,75%
      0     0      455,6351   372     1052,0000     Cuts: 215      432   56,69%
      0     0      458,3664   372     1052,0000     Cuts: 215      479   56,43%
      0     0      460,3063   372     1052,0000     Cuts: 215      538   56,24%
      0     0      462,4175   372     1052,0000     Cuts: 215      594   56,04%
*     0+    0                          979,0000      462,4175            52,77%
      0     0      544,3339   372      979,0000     Cuts: 215      963   44,40%
      0     0      550,7533   372      979,0000     Cuts: 215     1072   43,74%
      0     0      553,2756   372      979,0000      Cuts: 53     1133   43,49%
      0     0      556,0892   372      979,0000      Cuts: 26     1209   43,20%
      0     0      557,6458   372      979,0000      Cuts: 17     1296   43,04%
      0     0      558,6073   372      979,0000     Cuts: 162     1354   42,94%
      0     0      560,4719   372      979,0000      Cuts: 32     1452   42,75%
      0     0      561,4453   372      979,0000  ZeroHalf: 16     1540   42,65%
      0     0      562,5307   372      979,0000      Cuts: 98     1600   42,54%
      0     0      564,7327   372      979,0000  ZeroHalf: 21     1680   42,32%
      0     0      565,0712   372      979,0000      Cuts: 28     1715   42,28%
      0     0      566,0869   372      979,0000      Cuts: 42     1747   42,18%
      0     0      567,3057   372      979,0000      Cuts: 21     1820   42,05%
      0     0      567,8481   372      979,0000      Cuts: 59     1882   42,00%
      0     0      568,2879   372      979,0000      Cuts: 43     1943   41,95%
      0     0      568,7987   372      979,0000      Cuts: 36     2049   41,90%
      0     0      569,6058   372      979,0000      Cuts: 26     2123   41,82%
      0     0      570,1344   372      979,0000      Cuts: 42     2203   41,76%
      0     0      570,6488   372      979,0000     Cuts: 151     2274   41,71%
      0     0      571,1579   372      979,0000      Cuts: 34     2408   41,66%
      0     0      571,5897   372      979,0000      Cuts: 99     2529   41,61%
      0     0      571,8646   372      979,0000      Cuts: 82     2618   41,59%
      0     0      572,4917   372      979,0000  ZeroHalf: 20     2734   41,52%
      0     0      573,0318   372      979,0000     Cuts: 157     2869   41,47%
      0     0      573,2913   372      979,0000      Cuts: 49     2955   41,44%
      0     0      573,8064   372      979,0000      Cuts: 72     3088   41,39%
      0     0      574,0535   372      979,0000      Cuts: 21     3193   41,36%
      0     0      574,8778   372      979,0000     Cuts: 116     3335   41,28%
*     0+    0                          978,0000      574,8778            41,22%
      0     0      575,1926   372      978,0000     Cuts: 111     3429   41,19%
      0     0      575,5522   372      978,0000      Cuts: 40     3498   41,15%
      0     0      575,6844   372      978,0000      Cuts: 78     3567   41,14%
      0     0      575,9661   372      978,0000      Cuts: 58     3675   41,11%
      0     0      576,3792   372      978,0000      Cuts: 68     3780   40,79%
      0     0      582,0587   372      978,0000      Cuts: 84     4082   40,48%
      0     0      584,8168   372      978,0000     Cuts: 169     4290   40,20%
      0     0      585,8626   372      978,0000     Cuts: 177     4413   40,10%
*     0+    0                          969,0000      585,8626            39,54%
      0     0      586,7029   372      969,0000      Cuts: 38     4527   39,45%
      0     0      587,3724   372      969,0000     Cuts: 168     4644   39,38%
      0     0      588,1510   372      969,0000      Cuts: 23     4752   39,30%
      0     0      589,0171   372      969,0000      Cuts: 25     4875   39,21%
      0     0      589,9355   372      969,0000     Cuts: 164     5003   39,12%
      0     0      590,7492   372      969,0000      Cuts: 97     5140   39,04%
      0     0      591,0709   372      969,0000     Cuts: 100     5272   39,00%
      0     0      591,5032   372      969,0000      Cuts: 37     5356   38,96%
      0     0      591,7472   372      969,0000      Cuts: 98     5496   38,93%
      0     2      591,7472   420      969,0000      591,7472     5496   38,93%
Elapsed time = 1,64 sec. (1115,37 ticks, tree = 0,02 MB, solutions = 6)
   1254   710      898,1415   109      969,0000      670,5260    52538   30,80%
   2661  1550      904,2395   147      969,0000      748,7496   115981   22,73%
   4427  2625      953,0667    37      969,0000      789,4795   196969   18,53%

Performing restart 1

Repeating presolve.
Tried aggregator 2 times.
MIP Presolve eliminated 62 rows and 30 columns.
MIP Presolve added 56 rows and 0 columns.
MIP Presolve modified 144 coefficients.
Aggregator did 4 substitutions.
Reduced MIP has 450 rows, 412 columns, and 1742 nonzeros.
Reduced MIP has 412 binaries, 0 generals, 0 SOSs, and 0 indicators.
Presolve time = 0,00 sec. (2,60 ticks)
Tried aggregator 1 time.
Reduced MIP has 450 rows, 412 columns, and 1742 nonzeros.
Reduced MIP has 412 binaries, 0 generals, 0 SOSs, and 0 indicators.
Presolve time = 0,00 sec. (1,50 ticks)
Represolve time = 0,03 sec. (20,17 ticks)
   4445     0      596,4666   412      969,0000      Cuts: 65   220344   17,92%
   4445     0      598,5172   412      969,0000      Cuts: 77   220515   17,92%
   4445     0      603,7511   412      969,0000      Cuts: 80   220755   17,92%
   4445     0      607,9894   412      969,0000      Cuts: 72   220983   17,92%
   4445     2      607,9894   412      969,0000      795,3263   220983   17,92%
   4449     4      634,5046   379      969,0000      795,3263   221837   17,92%
   4609    38      825,3384   221      969,0000      795,3263   226854   17,92%
   5045   418      778,8132   254      969,0000      795,3263   277584   17,92%
   5954   885      870,5429   229      969,0000      795,3263   316615   17,92%
   6504  1370        cutoff            969,0000      795,3263   348569   17,92%
  10246  4229      777,8322   355      969,0000      795,3263   526699   17,92%
Elapsed time = 5,50 sec. (4843,58 ticks, tree = 26,20 MB, solutions = 7)

Performing restart 2

Repeating presolve.
Tried aggregator 1 time.
Reduced MIP has 450 rows, 412 columns, and 1742 nonzeros.
Reduced MIP has 412 binaries, 0 generals, 0 SOSs, and 0 indicators.
Presolve time = 0,00 sec. (1,06 ticks)
Tried aggregator 1 time.
Reduced MIP has 450 rows, 412 columns, and 1742 nonzeros.
Reduced MIP has 412 binaries, 0 generals, 0 SOSs, and 0 indicators.
Presolve time = 0,00 sec. (1,50 ticks)
Represolve time = 0,03 sec. (23,18 ticks)
  10248     0      613,4369   411      969,0000      Cuts: 46   552330   17,92%
  10248     0      615,0859   411      969,0000      Cuts: 40   552501   17,92%
  10248     0      617,1562   411      969,0000      Cuts: 49   552669   17,92%
  10248     0      618,0369   411      969,0000      Cuts: 49   552812   17,92%
  10248     0      618,5383   411      969,0000      Cuts: 25   552921   17,92%
  10248     0      618,9310   411      969,0000      Cuts: 68   553075   17,92%
  10248     2      618,9310   412      969,0000      795,3263   553075   17,92%
  14243  1077        cutoff            969,0000      795,3263   732109   17,92%

GUB cover cuts applied:  20
Clique cuts applied:  39
Cover cuts applied:  576
Flow cuts applied:  15
Mixed integer rounding cuts applied:  224
Zero-half cuts applied:  109
Lift and project cuts applied:  46
Gomory fractional cuts applied:  16

Root node processing (before b&c):
  Real time             =    1,64 sec. (1113,02 ticks)
Parallel b&c, 16 threads:
  Real time             =    7,33 sec. (6739,71 ticks)
  Sync time (average)   =    1,53 sec.
  Wait time (average)   =    0,02 sec.
                          ------------
Total (root+branch&cut) =    8,97 sec. (7852,73 ticks)
